NAME : mtspf.91.tour
COMMENT : Length = 91
COMMENT : Found by LKH [Keld Helsgaun] Sun Jul  7 23:56:48 2024
TYPE : TOUR
DIMENSION : 31
TOUR_SECTION
1
11
29
2
21
26
3
31
7
18
14
30
4
12
28
8
19
17
27
5
13
23
10
16
24
6
20
25
9
15
22
-1
EOF
